9223372036854775807 9223372036854775807 9223372036854775807 9223372036854775807 9223372036854775807 9223372036854775807 9223372036854775807 9223372036854775807 9223372036854775807 9223372036854775807 9223372036854775807 9223372036854775807 9223372036854775807 9223372036854775807 9223372036854775807 9223372036854775807 9223372036854775807 9223372036854775807 9223372036854775807 9223372036854775807 9223372036854775807 9223372036854775807 9223372036854775807 9223372036854775807 9223372036854775807 9223372036854775807 9223372036854775807 9223372036854775807 9223372036854775807 9223372036854775807 9223372036854775807 9223372036854775807 9223372036854775807 9223372036854775807 9223372036854775807 9223372036854775807 9223372036854775807 9223372036854775807 9223372036854775807 9223372036854775807 9223372036854775807 9223372036854775807 9223372036854775807 9223372036854775807 9223372036854775807 9223372036854775807 9223372036854775807 9223372036854775807 9223372036854775807 9223372036854775807 9223372036854775807 9223372036854775807 9223372036854775807 9223372036854775807 9223372036854775807 9223372036854775807 9223372036854775807 9223372036854775807 9223372036854775807 9223372036854775807 9223372036854775807 9223372036854775807 9223372036854775807 9223372036854775807 9223372036854775807 9223372036854775807 9223372036854775807 9223372036854775807 9223372036854775807 9223372036854775807 9223372036854775807 9223372036854775807 9223372036854775807 9223372036854775807 9223372036854775807 9223372036854775807 9223372036854775807 9223372036854775807 9223372036854775807 9223372036854775807 9223372036854775807 9223372036854775807 9223372036854775807 9223372036854775807 9223372036854775807 9223372036854775807 9223372036854775807 9223372036854775807 9223372036854775807 9223372036854775807 9223372036854775807 9223372036854775807 9223372036854775807 9223372036854775807 9223372036854775807 9223372036854775807 9223372036854775807 9223372036854775807 9223372036854775807 9223372036854775807 9223372036854775807 9223372036854775807 9223372036854775807 9223372036854775807 9223372036854775807 9223372036854775807 9223372036854775807 9223372036854775807 9223372036854775807 9223372036854775807 9223372036854775807 9223372036854775807 9223372036854775807 9223372036854775807 9223372036854775807 9223372036854775807 9223372036854775807 9223372036854775807 9223372036854775807 9223372036854775807 9223372036854775807 9223372036854775807 9223372036854775807 9223372036854775807 9223372036854775807 9223372036854775807 9223372036854775807 9223372036854775807 9223372036854775807 9223372036854775807 9223372036854775807 9223372036854775807 9223372036854775807 9223372036854775807 9223372036854775807 9223372036854775807 9223372036854775807 9223372036854775807 9223372036854775807 9223372036854775807 9223372036854775807 9223372036854775807 9223372036854775807 9223372036854775807 9223372036854775807 9223372036854775807 9223372036854775807 9223372036854775807 9223372036854775807 9223372036854775807 9223372036854775807 9223372036854775807 9223372036854775807 9223372036854775807 9223372036854775807 9223372036854775807 9223372036854775807 9223372036854775807 9223372036854775807 9223372036854775807 9223372036854775807 9223372036854775807 9223372036854775807 9223372036854775807 9223372036854775807 9223372036854775807 9223372036854775807 9223372036854775807 9223372036854775807 9223372036854775807 9223372036854775807 9223372036854775807 9223372036854775807 9223372036854775807 9223372036854775807 9223372036854775807 9223372036854775807 9223372036854775807 9223372036854775807 9223372036854775807 9223372036854775807 9223372036854775807 9223372036854775807 9223372036854775807 9223372036854775807 9223372036854775807 9223372036854775807 9223372036854775807 9223372036854775807 9223372036854775807 9223372036854775807 9223372036854775807 9223372036854775807 9223372036854775807 9223372036854775807 9223372036854775807 9223372036854775807 9223372036854775807 9223372036854775807 9223372036854775807 9223372036854775807 9223372036854775807 9223372036854775807 9223372036854775807 9223372036854775807 9223372036854775807 9223372036854775807 9223372036854775807 9223372036854775807 9223372036854775807 9223372036854775807 9223372036854775807 9223372036854775807 9223372036854775807 9223372036854775807 9223372036854775807 9223372036854775807 9223372036854775807 9223372036854775807 9223372036854775807 9223372036854775807 9223372036854775807 9223372036854775807 9223372036854775807 9223372036854775807 9223372036854775807 9223372036854775807 9223372036854775807 9223372036854775807 9223372036854775807 9223372036854775807 9223372036854775807 9223372036854775807 9223372036854775807 9223372036854775807 9223372036854775807 9223372036854775807 9223372036854775807 7832 9223372036854775807 7796 7795 7776 7766 7757 7737 7722 7720 7706 7697 7676 7667 7652 7634 7622 7612 7606 7586 7581 7571 7553 7538 7518 7506 7486 7469 7446 7428 7428 7398 7367 7367 7339 7328 7321 7312 7305 7295 7282 7271 7227 7210 7207 7197 7185 7184 7180 7174 7164 7155 7141 7138 7134 7126 7122 7102 7102 7084 7081 7073 7073 7042 7039 7033 7029 7027 7021 6992 6992 6991 6991 6966 9223372036854775807 6944 9223372036854775807 9223372036854775807 9223372036854775807 6908 6899 6897 6893 6885 6877 6872 6870 6802 6793 6775 6738 6725 6702 6700 6676 6675 6659 6649 6629 6629 6611 6608 6605 6605 6601 6599 6585 6580 6571 6568 6566 6562 6558 6554 6544 6540 6536 6531 6527 6524 6521 6520 6515 6515 6511 6509 6506 6473 6470 6470 6467 6466 6465 6462 6461 6457 6456 6453 6453 6451 6437 6437 6436 6433 6431 6430 6427 6424 6423 6420 6417 6410 6408 6407 6404 6401 6396 6390 6384 6379 6379 6377 6371 6371 6365 6364 6359 6353 9223372036854775807 6341 6339 6339 9223372036854775807 9223372036854775807 6322 6314 9223372036854775807 9223372036854775807 6267 6267 9223372036854775807 9223372036854775807 9223372036854775807 6247 9223372036854775807 9223372036854775807 9223372036854775807 9223372036854775807 9223372036854775807 6232 6227 9223372036854775807 6221 6219 6217 9223372036854775807 6207 6207 6207 9223372036854775807 9223372036854775807 9223372036854775807 9223372036854775807 9223372036854775807 9223372036854775807 9223372036854775807 9223372036854775807 9223372036854775807 9223372036854775807 6107 6107 6105 6092 6088 6085 6083 6083 6081 6077 9223372036854775807 9223372036854775807 9223372036854775807 6053 6049 6047 6047 6046 6045 9223372036854775807 9223372036854775807 6035 6035 9223372036854775807 9223372036854775807 9223372036854775807 9223372036854775807 9223372036854775807 9223372036854775807 9223372036854775807 9223372036854775807 6004 6004 9223372036854775807 5991 5986 5985 5983 5979 5976 5972 5972 5970 5970 9223372036854775807 9223372036854775807 9223372036854775807 9223372036854775807 9223372036854775807 9223372036854775807 9223372036854775807 9223372036854775807 9223372036854775807 9223372036854775807 9223372036854775807 9223372036854775807 9223372036854775807 9223372036854775807 9223372036854775807 9223372036854775807 9223372036854775807 9223372036854775807 9223372036854775807 9223372036854775807 9223372036854775807 9223372036854775807 9223372036854775807 9223372036854775807 9223372036854775807 9223372036854775807 9223372036854775807 5843 5835 5828 9223372036854775807 9223372036854775807 9223372036854775807 9223372036854775807 5777 5772 5769 5754 5753 5750 5750 5749 5749 5747 5747 5745 5745 5735 5734 5733 5726 5719 5715 5715 5714 5712 5712 5711 5711 5710 5708 5708 5706 5706 5705 5704 5704 5704 5703 5703 5703 5701 5701 5701 5701 5701 5701 5701 5700 5700 5700 5690 5689 5689 5689 5689 5689 5689 5689 5689 5689 5689 5689 5689 5689 5689 5689 5688 5688 5688 5688 5688 5688 5688 5688 5688 5687 5687 5687 5687 5687 5687 5687 5687 5687 5687 5687 5685 5685 5685 5684 5684 5684 5684 5684 5674 5674 5674 5672 5672 5672 5672 5672 5672 5671 5671 5671 5666 5666 5660 5660 5660 5660 5660 5655 5655 5655 5655 5654 5654 5654 5653 5645 5645 5644 5644 5644 5640 5640 5640 5640 5640 5640 5639 5639 5639 5639 5639 5639 5639 5639 5639 5639 5639 5639 5639 5639 5639 5639 5636 5636 5636 5636 5636 5636 5636 5636 5635 5635 5635 5635 5635 5635 5635 5635 5635 5635 5635 5635 5635 5635 5635 5635 5635 5635 5635 5635 5635 5635 5635 5635 5635 5635 5635 5635 5635 5635 5635 5635 5633 5633 5633 5633 5632 5632 5632 5632 5632 5632 5632 5632 5631 5631 5631 5631 5631 5631 5631 5631 5631 5631 5631 5631 5631 5631 5631 5631 5631 5631 5631 5631 5631 5631 5631 5631 5631 5631 5631 5631 5631 5631 5631 5631 5631 5631 5631 5631 5631 5631 5631 5631 5631 5631 5631 5631 5631 5631 5631 5631 5631 5631 5631 5631 5631 5631 5631 5631 5631 5631 5631 5631 5631 5631 5631 5631 5631 5631 5631 5631 5631 5631 5631 5631 5631 5631 5631 5631 5631 5631 5631 5631 5631 5631 5631 5631 5631 5631 5631 5631 5631 5631 5631 5631 5631 5631 5631 5631 5631 5631 5631 5631 5631 5631 5631 5631 5631 5631 5631 5631 5631 5631 5631 5631 5631 5631 5631 5631 5631 5631 5631 5631 5631 5631 5631 5631 5631 5631 5631 5631 5631 5631 5631 5631 5631 5631 5631 5631 5631 5631 5631 5631 5631 5631 5631 5631 5631 5631 5631 5631 5631 5631 5631 5631 5631 5631 5631 5631 5631 5631 5631 5631 5631 5631 5631 5631 5631 5631 5631 5631 5631 5631 5631 5631 5631 5631 5631 5631 5631 5631 5631 5631 5631 5631 5631 5631 5631 5631 5631 5631 5631 5631 5631 5631 5631 5631 5631 5631 5631 5631 5631 5631 5631 5631 5631 5631 5631 5631 5631 5631 5631 5631 5631 5631 5631 5631 5631 5631 5631 5631 5631 5631 5631 5631 5631 5631 5631 5631 5631 5631 5631 5631 5631 5631 5631 5631 5631 5631 5631 5631 5631 5631 5631 5631 5631 5631 5631 5631 5631 5631 5631 5631 5631 5631 5631 5631 5631 5631 5631 5631 5631 5631 5631 5631 5631 5631 5631 5631 5631 5631 5631 5631 5631 5631 5631 5631 5631 5631 5631 5631 5631 5631 5631 5631 5631 5631 5631 5631 5631 5631 5631 5631 5631 5631 5631 5631 5631 5631 5631 5631 5631 5631 5631 5631 5631 5631 5631 5631 5631 5631 5631 5631 5631 5631 5631 5631 5631 5631 5631 5631 5631 5631 5631 5631 5631 5631 5631 5631 5631 5631 5631 5631 5631 5631 5631 5631 5631 5631 5631 5631 5631 5631 5631 5631 5631 5631 5631 5631 5631 5631 5631 5631 5631 5631 5631 5631 5631 5631 5631 5631 5631 5631 5631 5631 5631 5631 5631 5631 5631 5631 5631 5631 5631 5631 5631 5631 5631 5631 5631 5631 5631 5631 5631 5631 5631 5631 5631 5631 5631 5631 5631 5631 5631 5631 5631 5631 5631 5631 5631 5631 5631 5631 5631 5631 5631 5631 5631 5631 5631 5631 5631 5631 5631 5631 5631 5631 5631 5631 5631 5631 5631 5631 5631 5631 5631 5631 5631 5631 5631 5631 5631 5631 5631 5631 5631 5631 5631 5631 5631 5631 5631 5631 5631 5631 5631 5631 5631 5631 5631 5631 5631 5631 5631 5631 5631 5631 5631 5631 5631 5631 5631 5631 5631 5631 5631 5631 5631 5631 5631 5631 5631 5631 5631 5631 5631 5631 5631 5631 5631 5631 5631 5631 5631 5631 5631 5631 5631 5631 5631 5631 5631 5631 5631 5631 5631 5631 5631 5631 5631 5631 5631 5631 5631 5631 5631 5631 5631 5631 5631 5631 5631 5631 5631 5631 5631 5631 5631 5631 5631 5631 5631 5631 5631 5631 5631 5631 5631 5631 5631 5631 5631 5631 5631 5631 5631 5631 5631 5631 5631 5631 5631 5631 5631 5631 5631 5631 5631 5631 5631 5631 5631 5631 5631 5631 5631 5631 5631 5631 5631 5631 5631 5631 5631 5631 5631 5631 5631 5631 5631 5631 5631 5631 5631 5631 5631 5631 5631 5631 5631 5631 5631 5631 5631 5631 5631 5631 5631 5631 5631 5631 5631 5631 5631 5631 5631 5631 5631 5631 5628 5628 5628 5628 5628 5628 5628 5628 5628 5628 5628 5628 5628 5628 5628 5628 5628 5628 5628 5628 5628 5628 5628 5628 5628 5628 5628 5628 5628 5628 5628 5628 5628 5628 5628 5628 5628 5628 5628 5628 5628 5628 5628 5628 5628 5628 5628 5628 5628 5628 5628 5628 5628 5628 5628 5628 5628 5628 5628 5628 5628 5628 5628 5628 5628 5628 5628 5628 5628 5628 5628 5628 5628 5628 5628 5628 5628 5628 5628 5628 5628 5628 5628 5628 5628 5628 5628 5628 5628 5628 5628 5628 5628 5628 5628 5628 5628 5628 5628 5628 5628 5628 5628 5628 5628 5628 5628 5628 5628 5628 5628 5628 5628 5628 5628 5628 5628 5628 5628 5628 5628 5628 5628 5628 5628 5628 5628 5628 5628 5628 5628 5628 5628 5628 5628 5628 5628 5628 5628 5628 5628 5628 5628 5628 5628 5628 5628 5628 5628 5628 5628 5628 5628 5628 5628 5628 5628 5628 5628 5628 5628 5628 5628 5628 5628 5628 5628 5628 5628 5628 5628 5628 5628 5628 5628 5628 5628 5628 5628 5628 5628 5628 5628 5628 5628 5628 5628 5628 5628 5628 5628 5628 5628 5628 5628 5628 5628 5628 5628 5628 5628 5628 5628 5628 5628 5628 5628 5628 5628 5628 5628 5628 5628 5628 5628 5628 5628 5628 5628 5628 5628 5628 5628 5628 5628 5628 5628 5628 5628 5628 5628 5628 5628 5628 5628 5628 5628 5628 5628 5628 5628 5628 5628 5628 5628 5628 5628 5628 5628 5628 5628 5628 5628 5628 5628 5628 5628 5628 5628 5628 5628 5628 5628 5628 5628 5628 5628 5628 5628 5628 5628 5628 5628 5628 5628 5628 5628 5628 5628 5628 5628 5628 5628 5628 5628 5628 5628 5628 5628 5628 5628 5628 5628 5628 5628 5628 5628 5628 5628 5628 5628 5628 5628 5628 5628 5628 5628 5628 5628 5628 5628 5628 5628 5628 5628 5628 5628 5628 5628 5628 5628 5628 5628 5628 5628 5628 5628 5628 5628 5628 5628 5628 5628 5628 5628 5628 5628 5628 5628 5628 5628 5628 5628 5628 5628 5628 5628 5628 5628 5628 5628 5628 5628 5628 5628 5628 5628 5628 5628 5628 5628 5628 5628 5628 5628 5628 5628 5628 5628 5628 5628 5628 5628 5628 5628 5628 5628 5628 5628 5628 5628 5628 5628 5628 5628 5628 5628 5628 5628 5628 5628 5628 5628 5628 5627 5627 5627 5627 5627 5627 5627 5627 5627 5627 5627 5627 5627 5627 5627 5627 5627 5627 5627 5627 5627 5627 5627 5627 5627 5627 5627 5627 5627 5627 5627 5627 5627 5627 5627 5627 5627 5627 5627 5627 5627 5627 5627 5627 5627 5627 5627 5627 5621 5621 5621 5619 5619 5617 5617 5617 5615 5615 5615 5615 5615 5615 5615 5615 5615 5615 5615 5615 5615 5615 5615 5615 5615 5615 5615 5615 5615 5615 5614 5614 5614 5614 5614 5614 5614 5614 5614 5614 5614 5614 5614 5614 5614 5614 5614 5614 5614 5614 5614 5614 5614 5613 5613 5613 5613 5613 5613 5613 5613 5613 5608 5608 5608 5608 5608 5608 5608 5608 5608 5608 5608 5608 5608 5608 5608 5608 5608 5606 5606 5606 5606 5606 5606 5606 5606 5606 5606 5606 5606 5606 5604 5604 5604 5604 5604 5604 5604 5604 5604 5604 5604 5604 5604 5604 5604 5604 5604 5604 5604 5604 5604 5604 5604 5604 5604 5604 5604 5604 5604 5604 5604 5604 5604 5604 5604 5604 5604 5604 5604 5604 5604 5604 5604 5604 5604 5604 5604 5604 5604 5604 5604 5604 5604 5604 5604 5604 5604 5604 5604 5604 5604 5604 5594 5594 5594 5594 5591 5591 5591 5591 5591 5591 5591 5591 5591 5591 5591 5591 5591 5591 5591 5591 5591 5591 5591 5591 5591 5591 5591 5591 5591 5591 5591 5591 5591 5591 5591 5591 5591 5591 5591 5591 5591 5591 5591 5591 5591 5591 5591 5591 5591 5591 5591 5591 5591 5591 5591 5591 5591 5591 5591 5591 5591 5591 5591 5591 5591 5591 5591 5591 5591 5591 5591 5591 5591 5591 5591 5591 5591 5591 5591 5591 5591 5591 5591 5591 5591 5591 
0 0 0 0 0 0 0 0 0 0 0 0 0 0 0 0 0 0 0 0 0 0 0 0 0 0 0 0 0 0 0 0 0 0 0 0 0 0 0 0 0 0 0 0 0 0 0 0 0 0 0 0 0 0 0 0 0 0 0 0 0 0 0 0 0 0 0 0 0 0 0 0 0 0 0 0 0 0 0 0 0 0 0 0 0 0 0 0 0 0 0 0 0 0 0 0 0 0 0 0 0 0 0 0 0 0 0 0 0 0 0 0 0 0 0 0 0 0 0 0 0 0 0 0 0 0 0 0 0 0 0 0 0 0 0 0 0 0 0 0 0 0 0 0 0 0 0 0 0 0 0 0 0 0 0 0 0 0 0 0 0 0 0 0 0 0 0 0 0 0 0 0 0 0 0 0 0 0 0 0 0 0 0 0 0 0 0 0 0 0 0 0 0 0 0 0 0 0 0 0 0 0 0 0 0 0 0 0 0 0 0 0 0 0 0 0 0 0 0 0 0 0 0 0 0 0 0 0 0 0 0 0 0 0 0 0 0 0 7832 0 7796 7797 7795 7792 7778 7766 7756 7741 7730 7720 7712 7699 7685 7670 7652 7641 7627 7619 7610 7589 7580 7568 7553 7536 7522 7507 7488 7472 7462 7445 7419 7396 7368 7365 7345 7328 7320 7315 7309 7301 7288 7270 7261 7230 7207 7198 7192 7185 7181 7172 7163 7154 7148 7140 7134 7129 7121 7114 7106 7092 7083 7080 7075 7042 7041 7036 7031 7025 6993 6991 6991 6966 0 6944 0 0 0 6910 6900 6898 6898 6895 6889 6884 6878 6868 6804 6794 6785 6755 6733 6714 6697 6696 6688 6675 6670 6665 6654 6634 6623 6612 6607 6605 6604 6601 6596 6586 6573 6569 6567 6564 6557 6553 6545 6539 6535 6531 6527 6524 6521 6520 6517 6514 6510 6508 6507 6504 6483 6470 6469 6466 6466 6464 6461 6459 6456 6455 6454 6452 6450 6445 6436 6435 6434 6431 6429 6426 6422 6418 6416 6414 6409 6406 6406 6400 6399 6392 6386 6383 6378 6378 6375 6371 6366 6364 0 6341 6340 6339 0 0 6322 6314 0 0 6267 6267 0 0 0 6247 0 0 0 0 0 6232 6227 0 6221 6220 6218 0 6210 6207 6207 0 0 0 0 0 0 0 0 0 0 6108 6108 6107 6094 6091 6087 6085 6084 6082 6077 0 0 0 6053 6052 6050 6048 6047 6045 0 0 6035 6035 0 0 0 0 0 0 0 0 6004 6004 0 5991 5990 5985 5984 5983 5980 5977 5975 5972 5970 0 0 0 0 0 0 0 0 0 0 0 0 0 0 0 0 0 0 0 0 0 0 0 0 0 0 0 5843 5841 5835 0 0 0 0 5777 5776 5772 5771 5754 5754 5753 5752 5749 5749 5748 5748 5748 5746 5745 5744 5738 5733 5731 5725 5721 5714 5714 5714 5711 5711 5711 5710 5710 5709 5707 5705 5705 5704 5703 5703 5703 5703 5703 5702 5702 5701 5701 5701 5700 5700 5700 5700 5699 5699 5696 5689 5689 5689 5689 5689 5689 5689 5689 5689 5689 5689 5689 5688 5688 5688 5688 5688 5688 5688 5688 5688 5687 5687 5687 5687 5687 5687 5687 5687 5687 5687 5687 5686 5686 5686 5684 5684 5684 5684 5684 5683 5683 5683 5680 5673 5673 5672 5672 5672 5671 5671 5671 5670 5670 5670 5665 5665 5664 5660 5659 5659 5659 5655 5654 5654 5654 5654 5653 5652 5652 5651 5644 5643 5643 5643 5640 5640 5640 5639 5639 5639 5639 5639 5639 5639 5639 5639 5639 5639 5639 5639 5639 5639 5639 5638 5638 5638 5636 5636 5636 5636 5636 5635 5635 5635 5635 5635 5635 5635 5635 5635 5635 5635 5635 5635 5635 5635 5635 5635 5635 5635 5635 5635 5635 5635 5635 5635 5635 5635 5635 5635 5635 5635 5635 5634 5634 5634 5633 5632 5632 5632 5632 5632 5632 5632 5632 5631 5631 5631 5631 5631 5631 5631 5631 5631 5631 5631 5631 5631 5631 5631 5631 5631 5631 5631 5631 5631 5631 5631 5631 5631 5631 5631 5631 5631 5631 5631 5631 5631 5631 5631 5631 5631 5631 5631 5631 5631 5631 5631 5631 5631 5631 5631 5631 5631 5631 5631 5631 5631 5631 5631 5631 5631 5631 5631 5631 5631 5631 5631 5631 5631 5631 5631 5631 5631 5631 5631 5631 5631 5631 5631 5631 5631 5631 5631 5631 5631 5631 5631 5631 5631 5631 5631 5631 5631 5631 5631 5631 5631 5631 5631 5631 5631 5631 5631 5631 5631 5631 5631 5631 5631 5631 5631 5631 5631 5631 5631 5631 5631 5631 5631 5631 5631 5631 5631 5631 5631 5631 5631 5631 5631 5631 5631 5631 5631 5631 5631 5631 5631 5631 5631 5631 5631 5631 5631 5631 5631 5631 5631 5631 5631 5631 5631 5631 5631 5631 5631 5631 5631 5631 5631 5631 5631 5631 5631 5631 5631 5631 5631 5631 5631 5631 5631 5631 5631 5631 5631 5631 5631 5631 5631 5631 5631 5631 5631 5631 5631 5631 5631 5631 5631 5631 5631 5631 5631 5631 5631 5631 5631 5631 5631 5631 5631 5631 5631 5631 5631 5631 5631 5631 5631 5631 5631 5631 5631 5631 5631 5631 5631 5631 5631 5631 5631 5631 5631 5631 5631 5631 5631 5631 5631 5631 5631 5631 5631 5631 5631 5631 5631 5631 5631 5631 5631 5631 5631 5631 5631 5631 5631 5631 5631 5631 5631 5631 5631 5631 5631 5631 5631 5631 5631 5631 5631 5631 5631 5631 5631 5631 5631 5631 5631 5631 5631 5631 5631 5631 5631 5631 5631 5631 5631 5631 5631 5631 5631 5631 5631 5631 5631 5631 5631 5631 5631 5631 5631 5631 5631 5631 5631 5631 5631 5631 5631 5631 5631 5631 5631 5631 5631 5631 5631 5631 5631 5631 5631 5631 5631 5631 5631 5631 5631 5631 5631 5631 5631 5631 5631 5631 5631 5631 5631 5631 5631 5631 5631 5631 5631 5631 5631 5631 5631 5631 5631 5631 5631 5631 5631 5631 5631 5631 5631 5631 5631 5631 5631 5631 5631 5631 5631 5631 5631 5631 5631 5631 5631 5631 5631 5631 5631 5631 5631 5631 5631 5631 5631 5631 5631 5631 5631 5631 5631 5631 5631 5631 5631 5631 5631 5631 5631 5631 5631 5631 5631 5631 5631 5631 5631 5631 5631 5631 5631 5631 5631 5631 5631 5631 5631 5631 5631 5631 5631 5631 5631 5631 5631 5631 5631 5631 5631 5631 5631 5631 5631 5631 5631 5631 5631 5631 5631 5631 5631 5631 5631 5631 5631 5631 5631 5631 5631 5631 5631 5631 5631 5631 5631 5631 5631 5631 5631 5631 5631 5631 5631 5631 5631 5631 5631 5631 5631 5631 5631 5631 5631 5631 5631 5631 5631 5631 5631 5631 5631 5631 5631 5631 5631 5631 5631 5631 5631 5631 5631 5631 5631 5631 5631 5631 5631 5631 5631 5631 5631 5631 5631 5631 5631 5631 5631 5631 5631 5631 5631 5631 5631 5631 5631 5631 5631 5631 5631 5631 5631 5631 5631 5631 5631 5631 5631 5631 5631 5631 5631 5631 5631 5631 5631 5631 5631 5631 5631 5631 5631 5631 5631 5631 5631 5631 5631 5631 5631 5631 5631 5631 5631 5631 5631 5631 5631 5631 5631 5631 5631 5631 5631 5631 5631 5631 5631 5631 5631 5631 5631 5631 5631 5631 5631 5631 5631 5631 5631 5631 5631 5631 5631 5631 5631 5631 5631 5631 5631 5631 5631 5631 5631 5631 5631 5631 5631 5631 5631 5631 5631 5631 5631 5631 5631 5631 5631 5631 5631 5631 5631 5631 5630 5630 5630 5628 5628 5628 5628 5628 5628 5628 5628 5628 5628 5628 5628 5628 5628 5628 5628 5628 5628 5628 5628 5628 5628 5628 5628 5628 5628 5628 5628 5628 5628 5628 5628 5628 5628 5628 5628 5628 5628 5628 5628 5628 5628 5628 5628 5628 5628 5628 5628 5628 5628 5628 5628 5628 5628 5628 5628 5628 5628 5628 5628 5628 5628 5628 5628 5628 5628 5628 5628 5628 5628 5628 5628 5628 5628 5628 5628 5628 5628 5628 5628 5628 5628 5628 5628 5628 5628 5628 5628 5628 5628 5628 5628 5628 5628 5628 5628 5628 5628 5628 5628 5628 5628 5628 5628 5628 5628 5628 5628 5628 5628 5628 5628 5628 5628 5628 5628 5628 5628 5628 5628 5628 5628 5628 5628 5628 5628 5628 5628 5628 5628 5628 5628 5628 5628 5628 5628 5628 5628 5628 5628 5628 5628 5628 5628 5628 5628 5628 5628 5628 5628 5628 5628 5628 5628 5628 5628 5628 5628 5628 5628 5628 5628 5628 5628 5628 5628 5628 5628 5628 5628 5628 5628 5628 5628 5628 5628 5628 5628 5628 5628 5628 5628 5628 5628 5628 5628 5628 5628 5628 5628 5628 5628 5628 5628 5628 5628 5628 5628 5628 5628 5628 5628 5628 5628 5628 5628 5628 5628 5628 5628 5628 5628 5628 5628 5628 5628 5628 5628 5628 5628 5628 5628 5628 5628 5628 5628 5628 5628 5628 5628 5628 5628 5628 5628 5628 5628 5628 5628 5628 5628 5628 5628 5628 5628 5628 5628 5628 5628 5628 5628 5628 5628 5628 5628 5628 5628 5628 5628 5628 5628 5628 5628 5628 5628 5628 5628 5628 5628 5628 5628 5628 5628 5628 5628 5628 5628 5628 5628 5628 5628 5628 5628 5628 5628 5628 5628 5628 5628 5628 5628 5628 5628 5628 5628 5628 5628 5628 5628 5628 5628 5628 5628 5628 5628 5628 5628 5628 5628 5628 5628 5628 5628 5628 5628 5628 5628 5628 5628 5628 5628 5628 5628 5628 5628 5628 5628 5628 5628 5628 5628 5628 5628 5628 5628 5628 5628 5628 5628 5628 5628 5628 5628 5628 5628 5628 5628 5628 5628 5628 5628 5628 5628 5628 5628 5628 5628 5628 5628 5628 5628 5628 5628 5628 5628 5628 5628 5628 5628 5628 5628 5628 5628 5628 5628 5628 5628 5628 5628 5628 5628 5628 5628 5628 5628 5628 5628 5628 5628 5628 5628 5628 5627 5627 5627 5627 5627 5627 5627 5627 5627 5627 5627 5627 5627 5627 5627 5627 5627 5627 5627 5627 5627 5627 5627 5627 5627 5627 5627 5627 5627 5627 5627 5627 5627 5627 5627 5627 5627 5627 5627 5627 5627 5627 5627 5627 5627 5627 5627 5627 5626 5626 5626 5620 5620 5620 5618 5618 5617 5616 5616 5615 5615 5615 5615 5615 5615 5615 5615 5615 5615 5615 5615 5615 5615 5615 5615 5615 5615 5615 5614 5614 5614 5614 5614 5614 5614 5614 5614 5614 5614 5614 5614 5614 5614 5614 5614 5614 5614 5614 5614 5614 5614 5613 5613 5613 5613 5613 5613 5613 5613 5613 5612 5612 5612 5611 5608 5608 5608 5608 5608 5608 5608 5608 5608 5608 5608 5608 5608 5607 5607 5607 5606 5606 5606 5606 5606 5606 5606 5606 5606 5606 5605 5605 5605 5605 5604 5604 5604 5604 5604 5604 5604 5604 5604 5604 5604 5604 5604 5604 5604 5604 5604 5604 5604 5604 5604 5604 5604 5604 5604 5604 5604 5604 5604 5604 5604 5604 5604 5604 5604 5604 5604 5604 5604 5604 5604 5604 5604 5604 5604 5604 5604 5604 5604 5604 5604 5604 5604 5604 5604 5604 5604 5604 5603 5603 5603 5594 5593 5593 5593 5591 5591 5591 5591 5591 5591 5591 5591 5591 5591 5591 5591 5591 5591 5591 5591 5591 5591 5591 5591 5591 5591 5591 5591 5591 5591 5591 5591 5591 5591 5591 5591 5591 5591 5591 5591 5591 5591 5591 5591 5591 5591 5591 5591 5591 5591 5591 5591 5591 5591 5591 5591 5591 5591 5591 5591 5591 5591 5591 5591 5591 5591 5591 5591 5591 5591 5591 5591 5591 5591 5591 5591 5591 5591 5591 5591 5591 5591 5591 